; benchmark generated from python API
(set-info :status unknown)
(declare-fun cell_1_3 () Int)
(declare-fun cell_1_6 () Int)
(declare-fun cell_2_6 () Int)
(declare-fun cell_2_8 () Int)
(declare-fun cell_3_3 () Int)
(declare-fun cell_3_9 () Int)
(declare-fun cell_4_4 () Int)
(declare-fun cell_4_5 () Int)
(declare-fun cell_5_1 () Int)
(declare-fun cell_5_8 () Int)
(declare-fun cell_6_1 () Int)
(declare-fun cell_6_9 () Int)
(declare-fun cell_7_2 () Int)
(declare-fun cell_7_4 () Int)
(declare-fun cell_8_2 () Int)
(declare-fun cell_9_7 () Int)
(declare-fun cell_1_1 () Int)
(declare-fun cell_2_1 () Int)
(declare-fun cell_3_1 () Int)
(declare-fun cell_4_1 () Int)
(declare-fun cell_7_1 () Int)
(declare-fun cell_8_1 () Int)
(declare-fun cell_9_1 () Int)
(declare-fun cell_1_2 () Int)
(declare-fun cell_2_2 () Int)
(declare-fun cell_3_2 () Int)
(declare-fun cell_4_2 () Int)
(declare-fun cell_5_2 () Int)
(declare-fun cell_6_2 () Int)
(declare-fun cell_9_2 () Int)
(declare-fun cell_2_3 () Int)
(declare-fun cell_4_3 () Int)
(declare-fun cell_5_3 () Int)
(declare-fun cell_6_3 () Int)
(declare-fun cell_7_3 () Int)
(declare-fun cell_8_3 () Int)
(declare-fun cell_9_3 () Int)
(declare-fun cell_1_4 () Int)
(declare-fun cell_2_4 () Int)
(declare-fun cell_3_4 () Int)
(declare-fun cell_5_4 () Int)
(declare-fun cell_6_4 () Int)
(declare-fun cell_8_4 () Int)
(declare-fun cell_9_4 () Int)
(declare-fun cell_1_5 () Int)
(declare-fun cell_2_5 () Int)
(declare-fun cell_3_5 () Int)
(declare-fun cell_5_5 () Int)
(declare-fun cell_6_5 () Int)
(declare-fun cell_7_5 () Int)
(declare-fun cell_8_5 () Int)
(declare-fun cell_9_5 () Int)
(declare-fun cell_3_6 () Int)
(declare-fun cell_4_6 () Int)
(declare-fun cell_5_6 () Int)
(declare-fun cell_6_6 () Int)
(declare-fun cell_7_6 () Int)
(declare-fun cell_8_6 () Int)
(declare-fun cell_9_6 () Int)
(declare-fun cell_1_7 () Int)
(declare-fun cell_2_7 () Int)
(declare-fun cell_3_7 () Int)
(declare-fun cell_4_7 () Int)
(declare-fun cell_5_7 () Int)
(declare-fun cell_6_7 () Int)
(declare-fun cell_7_7 () Int)
(declare-fun cell_8_7 () Int)
(declare-fun cell_1_8 () Int)
(declare-fun cell_3_8 () Int)
(declare-fun cell_4_8 () Int)
(declare-fun cell_6_8 () Int)
(declare-fun cell_7_8 () Int)
(declare-fun cell_8_8 () Int)
(declare-fun cell_9_8 () Int)
(declare-fun cell_1_9 () Int)
(declare-fun cell_2_9 () Int)
(declare-fun cell_4_9 () Int)
(declare-fun cell_5_9 () Int)
(declare-fun cell_7_9 () Int)
(declare-fun cell_8_9 () Int)
(declare-fun cell_9_9 () Int)
(assert
 (= cell_1_3 1))
(assert
 (= cell_1_6 2))
(assert
 (= cell_2_6 1))
(assert
 (= cell_2_8 2))
(assert
 (= cell_3_3 2))
(assert
 (= cell_3_9 1))
(assert
 (= cell_4_4 2))
(assert
 (= cell_4_5 1))
(assert
 (= cell_5_1 2))
(assert
 (= cell_5_8 1))
(assert
 (= cell_6_1 1))
(assert
 (= cell_6_9 2))
(assert
 (= cell_7_2 2))
(assert
 (= cell_7_4 1))
(assert
 (= cell_8_2 1))
(assert
 (= cell_9_7 1))
(assert
 (let (($x509 (= cell_1_1 9)))
 (let (($x2359 (= cell_1_1 8)))
 (let (($x1599 (= cell_1_1 7)))
 (let (($x3427 (= cell_1_1 6)))
 (let (($x675 (= cell_1_1 5)))
 (let (($x3251 (= cell_1_1 4)))
 (let (($x2856 (= cell_1_1 3)))
 (let (($x569 (= cell_1_1 2)))
 (let (($x243 (= cell_1_1 1)))
 (or $x243 $x569 $x2856 $x3251 $x675 $x3427 $x1599 $x2359 $x509)))))))))))
(assert
 (let (($x2153 (= cell_2_1 9)))
 (let (($x1157 (= cell_2_1 8)))
 (let (($x1030 (= cell_2_1 7)))
 (let (($x80 (= cell_2_1 6)))
 (let (($x1082 (= cell_2_1 5)))
 (let (($x1961 (= cell_2_1 4)))
 (let (($x3028 (= cell_2_1 3)))
 (let (($x1882 (= cell_2_1 2)))
 (let (($x1893 (= cell_2_1 1)))
 (or $x1893 $x1882 $x3028 $x1961 $x1082 $x80 $x1030 $x1157 $x2153)))))))))))
(assert
 (let (($x2453 (= cell_3_1 9)))
 (let (($x2419 (= cell_3_1 8)))
 (let (($x3499 (= cell_3_1 7)))
 (let (($x585 (= cell_3_1 6)))
 (let (($x1709 (= cell_3_1 5)))
 (let (($x1342 (= cell_3_1 4)))
 (let (($x2960 (= cell_3_1 3)))
 (let (($x2733 (= cell_3_1 2)))
 (let (($x1272 (= cell_3_1 1)))
 (or $x1272 $x2733 $x2960 $x1342 $x1709 $x585 $x3499 $x2419 $x2453)))))))))))
(assert
 (let (($x1270 (= cell_4_1 9)))
 (let (($x2137 (= cell_4_1 8)))
 (let (($x2263 (= cell_4_1 7)))
 (let (($x272 (= cell_4_1 6)))
 (let (($x1036 (= cell_4_1 5)))
 (let (($x1052 (= cell_4_1 4)))
 (let (($x1323 (= cell_4_1 3)))
 (let (($x2244 (= cell_4_1 2)))
 (let (($x2124 (= cell_4_1 1)))
 (or $x2124 $x2244 $x1323 $x1052 $x1036 $x272 $x2263 $x2137 $x1270)))))))))))
(assert
 (let (($x2289 (= cell_5_1 2)))
 (or (= cell_5_1 1) $x2289 (= cell_5_1 3) (= cell_5_1 4) (= cell_5_1 5) (= cell_5_1 6) (= cell_5_1 7) (= cell_5_1 8) (= cell_5_1 9))))
(assert
 (let (($x3225 (= cell_6_1 1)))
 (or $x3225 (= cell_6_1 2) (= cell_6_1 3) (= cell_6_1 4) (= cell_6_1 5) (= cell_6_1 6) (= cell_6_1 7) (= cell_6_1 8) (= cell_6_1 9))))
(assert
 (let (($x823 (= cell_7_1 9)))
 (let (($x1834 (= cell_7_1 8)))
 (let (($x3170 (= cell_7_1 7)))
 (let (($x1763 (= cell_7_1 6)))
 (let (($x192 (= cell_7_1 5)))
 (let (($x810 (= cell_7_1 4)))
 (let (($x2001 (= cell_7_1 3)))
 (let (($x3271 (= cell_7_1 2)))
 (let (($x299 (= cell_7_1 1)))
 (or $x299 $x3271 $x2001 $x810 $x192 $x1763 $x3170 $x1834 $x823)))))))))))
(assert
 (let (($x619 (= cell_8_1 9)))
 (let (($x447 (= cell_8_1 8)))
 (let (($x2399 (= cell_8_1 7)))
 (let (($x1098 (= cell_8_1 6)))
 (let (($x411 (= cell_8_1 5)))
 (let (($x665 (= cell_8_1 4)))
 (let (($x38 (= cell_8_1 3)))
 (let (($x3391 (= cell_8_1 2)))
 (let (($x3202 (= cell_8_1 1)))
 (or $x3202 $x3391 $x38 $x665 $x411 $x1098 $x2399 $x447 $x619)))))))))))
(assert
 (let (($x3791 (= cell_9_1 9)))
 (let (($x1298 (= cell_9_1 8)))
 (let (($x3663 (= cell_9_1 7)))
 (let (($x3437 (= cell_9_1 6)))
 (let (($x352 (= cell_9_1 5)))
 (let (($x1977 (= cell_9_1 4)))
 (let (($x1620 (= cell_9_1 3)))
 (let (($x884 (= cell_9_1 2)))
 (let (($x1079 (= cell_9_1 1)))
 (or $x1079 $x884 $x1620 $x1977 $x352 $x3437 $x3663 $x1298 $x3791)))))))))))
(assert
 (let (($x1430 (= cell_1_2 9)))
 (let (($x2093 (= cell_1_2 8)))
 (let (($x1442 (= cell_1_2 7)))
 (let (($x958 (= cell_1_2 6)))
 (let (($x1688 (= cell_1_2 5)))
 (let (($x1303 (= cell_1_2 4)))
 (let (($x364 (= cell_1_2 3)))
 (let (($x1408 (= cell_1_2 2)))
 (let (($x2732 (= cell_1_2 1)))
 (or $x2732 $x1408 $x364 $x1303 $x1688 $x958 $x1442 $x2093 $x1430)))))))))))
(assert
 (let (($x1848 (= cell_2_2 9)))
 (let (($x1862 (= cell_2_2 8)))
 (let (($x2759 (= cell_2_2 7)))
 (let (($x2786 (= cell_2_2 6)))
 (let (($x3279 (= cell_2_2 5)))
 (let (($x1259 (= cell_2_2 4)))
 (let (($x2832 (= cell_2_2 3)))
 (let (($x3400 (= cell_2_2 2)))
 (let (($x613 (= cell_2_2 1)))
 (or $x613 $x3400 $x2832 $x1259 $x3279 $x2786 $x2759 $x1862 $x1848)))))))))))
(assert
 (let (($x2750 (= cell_3_2 9)))
 (let (($x1340 (= cell_3_2 8)))
 (let (($x1680 (= cell_3_2 7)))
 (let (($x367 (= cell_3_2 6)))
 (let (($x3857 (= cell_3_2 5)))
 (let (($x2501 (= cell_3_2 4)))
 (let (($x1542 (= cell_3_2 3)))
 (let (($x1898 (= cell_3_2 2)))
 (let (($x3542 (= cell_3_2 1)))
 (or $x3542 $x1898 $x1542 $x2501 $x3857 $x367 $x1680 $x1340 $x2750)))))))))))
(assert
 (let (($x2465 (= cell_4_2 9)))
 (let (($x1936 (= cell_4_2 8)))
 (let (($x484 (= cell_4_2 7)))
 (let (($x1047 (= cell_4_2 6)))
 (let (($x281 (= cell_4_2 5)))
 (let (($x1359 (= cell_4_2 4)))
 (let (($x531 (= cell_4_2 3)))
 (let (($x1153 (= cell_4_2 2)))
 (let (($x2126 (= cell_4_2 1)))
 (or $x2126 $x1153 $x531 $x1359 $x281 $x1047 $x484 $x1936 $x2465)))))))))))
(assert
 (let (($x1225 (= cell_5_2 9)))
 (let (($x1541 (= cell_5_2 8)))
 (let (($x644 (= cell_5_2 7)))
 (let (($x321 (= cell_5_2 6)))
 (let (($x1916 (= cell_5_2 5)))
 (let (($x1889 (= cell_5_2 4)))
 (let (($x233 (= cell_5_2 3)))
 (let (($x517 (= cell_5_2 2)))
 (let (($x358 (= cell_5_2 1)))
 (or $x358 $x517 $x233 $x1889 $x1916 $x321 $x644 $x1541 $x1225)))))))))))
(assert
 (let (($x2064 (= cell_6_2 9)))
 (let (($x4045 (= cell_6_2 8)))
 (let (($x582 (= cell_6_2 7)))
 (let (($x2744 (= cell_6_2 6)))
 (let (($x2933 (= cell_6_2 5)))
 (let (($x2883 (= cell_6_2 4)))
 (let (($x1355 (= cell_6_2 3)))
 (let (($x2611 (= cell_6_2 2)))
 (let (($x1870 (= cell_6_2 1)))
 (or $x1870 $x2611 $x1355 $x2883 $x2933 $x2744 $x582 $x4045 $x2064)))))))))))
(assert
 (let (($x1361 (= cell_7_2 2)))
 (or (= cell_7_2 1) $x1361 (= cell_7_2 3) (= cell_7_2 4) (= cell_7_2 5) (= cell_7_2 6) (= cell_7_2 7) (= cell_7_2 8) (= cell_7_2 9))))
(assert
 (let (($x215 (= cell_8_2 1)))
 (or $x215 (= cell_8_2 2) (= cell_8_2 3) (= cell_8_2 4) (= cell_8_2 5) (= cell_8_2 6) (= cell_8_2 7) (= cell_8_2 8) (= cell_8_2 9))))
(assert
 (let (($x2382 (= cell_9_2 9)))
 (let (($x2445 (= cell_9_2 8)))
 (let (($x315 (= cell_9_2 7)))
 (let (($x1911 (= cell_9_2 6)))
 (let (($x1001 (= cell_9_2 5)))
 (let (($x2580 (= cell_9_2 4)))
 (let (($x2292 (= cell_9_2 3)))
 (let (($x3284 (= cell_9_2 2)))
 (let (($x385 (= cell_9_2 1)))
 (or $x385 $x3284 $x2292 $x2580 $x1001 $x1911 $x315 $x2445 $x2382)))))))))))
(assert
 (let (($x78 (= cell_1_3 1)))
 (or $x78 (= cell_1_3 2) (= cell_1_3 3) (= cell_1_3 4) (= cell_1_3 5) (= cell_1_3 6) (= cell_1_3 7) (= cell_1_3 8) (= cell_1_3 9))))
(assert
 (let (($x18 (= cell_2_3 9)))
 (let (($x1994 (= cell_2_3 8)))
 (let (($x2573 (= cell_2_3 7)))
 (let (($x3073 (= cell_2_3 6)))
 (let (($x2415 (= cell_2_3 5)))
 (let (($x137 (= cell_2_3 4)))
 (let (($x2118 (= cell_2_3 3)))
 (let (($x258 (= cell_2_3 2)))
 (let (($x48 (= cell_2_3 1)))
 (or $x48 $x258 $x2118 $x137 $x2415 $x3073 $x2573 $x1994 $x18)))))))))))
(assert
 (let (($x1070 (= cell_3_3 2)))
 (or (= cell_3_3 1) $x1070 (= cell_3_3 3) (= cell_3_3 4) (= cell_3_3 5) (= cell_3_3 6) (= cell_3_3 7) (= cell_3_3 8) (= cell_3_3 9))))
(assert
 (let (($x2635 (= cell_4_3 9)))
 (let (($x657 (= cell_4_3 8)))
 (let (($x4061 (= cell_4_3 7)))
 (let (($x2475 (= cell_4_3 6)))
 (let (($x3631 (= cell_4_3 5)))
 (let (($x950 (= cell_4_3 4)))
 (let (($x1016 (= cell_4_3 3)))
 (let (($x1214 (= cell_4_3 2)))
 (let (($x324 (= cell_4_3 1)))
 (or $x324 $x1214 $x1016 $x950 $x3631 $x2475 $x4061 $x657 $x2635)))))))))))
(assert
 (let (($x621 (= cell_5_3 9)))
 (let (($x1800 (= cell_5_3 8)))
 (let (($x3215 (= cell_5_3 7)))
 (let (($x844 (= cell_5_3 6)))
 (let (($x703 (= cell_5_3 5)))
 (let (($x508 (= cell_5_3 4)))
 (let (($x3604 (= cell_5_3 3)))
 (let (($x64 (= cell_5_3 2)))
 (let (($x1749 (= cell_5_3 1)))
 (or $x1749 $x64 $x3604 $x508 $x703 $x844 $x3215 $x1800 $x621)))))))))))
(assert
 (let (($x2544 (= cell_6_3 9)))
 (let (($x2720 (= cell_6_3 8)))
 (let (($x780 (= cell_6_3 7)))
 (let (($x2623 (= cell_6_3 6)))
 (let (($x87 (= cell_6_3 5)))
 (let (($x2889 (= cell_6_3 4)))
 (let (($x3565 (= cell_6_3 3)))
 (let (($x2845 (= cell_6_3 2)))
 (let (($x293 (= cell_6_3 1)))
 (or $x293 $x2845 $x3565 $x2889 $x87 $x2623 $x780 $x2720 $x2544)))))))))))
(assert
 (let (($x403 (= cell_7_3 9)))
 (let (($x574 (= cell_7_3 8)))
 (let (($x1138 (= cell_7_3 7)))
 (let (($x1998 (= cell_7_3 6)))
 (let (($x1119 (= cell_7_3 5)))
 (let (($x1299 (= cell_7_3 4)))
 (let (($x785 (= cell_7_3 3)))
 (let (($x3795 (= cell_7_3 2)))
 (let (($x3523 (= cell_7_3 1)))
 (or $x3523 $x3795 $x785 $x1299 $x1119 $x1998 $x1138 $x574 $x403)))))))))))
(assert
 (let (($x436 (= cell_8_3 2)))
 (let (($x1122 (= cell_8_3 1)))
 (or $x1122 $x436 (= cell_8_3 3) (= cell_8_3 4) (= cell_8_3 5) (= cell_8_3 6) (= cell_8_3 7) (= cell_8_3 8) (= cell_8_3 9)))))
(assert
 (let (($x1609 (= cell_9_3 9)))
 (let (($x2315 (= cell_9_3 8)))
 (let (($x2590 (= cell_9_3 7)))
 (let (($x1557 (= cell_9_3 6)))
 (let (($x2749 (= cell_9_3 5)))
 (let (($x2074 (= cell_9_3 4)))
 (let (($x2337 (= cell_9_3 3)))
 (let (($x854 (= cell_9_3 2)))
 (let (($x3475 (= cell_9_3 1)))
 (or $x3475 $x854 $x2337 $x2074 $x2749 $x1557 $x2590 $x2315 $x1609)))))))))))
(assert
 (let (($x1013 (= cell_1_4 9)))
 (let (($x3356 (= cell_1_4 8)))
 (let (($x814 (= cell_1_4 7)))
 (let (($x3412 (= cell_1_4 6)))
 (let (($x3779 (= cell_1_4 5)))
 (let (($x205 (= cell_1_4 4)))
 (let (($x1116 (= cell_1_4 3)))
 (let (($x2656 (= cell_1_4 2)))
 (let (($x697 (= cell_1_4 1)))
 (or $x697 $x2656 $x1116 $x205 $x3779 $x3412 $x814 $x3356 $x1013)))))))))))
(assert
 (let (($x318 (= cell_2_4 9)))
 (let (($x2120 (= cell_2_4 8)))
 (let (($x2663 (= cell_2_4 7)))
 (let (($x1230 (= cell_2_4 6)))
 (let (($x2929 (= cell_2_4 5)))
 (let (($x3512 (= cell_2_4 4)))
 (let (($x3402 (= cell_2_4 3)))
 (let (($x152 (= cell_2_4 2)))
 (let (($x975 (= cell_2_4 1)))
 (or $x975 $x152 $x3402 $x3512 $x2929 $x1230 $x2663 $x2120 $x318)))))))))))
(assert
 (let (($x2478 (= cell_3_4 9)))
 (let (($x1267 (= cell_3_4 8)))
 (let (($x3716 (= cell_3_4 7)))
 (let (($x3107 (= cell_3_4 6)))
 (let (($x2812 (= cell_3_4 5)))
 (let (($x2170 (= cell_3_4 4)))
 (let (($x1932 (= cell_3_4 3)))
 (let (($x1752 (= cell_3_4 2)))
 (let (($x2642 (= cell_3_4 1)))
 (or $x2642 $x1752 $x1932 $x2170 $x2812 $x3107 $x3716 $x1267 $x2478)))))))))))
(assert
 (let (($x1495 (= cell_4_4 2)))
 (or (= cell_4_4 1) $x1495 (= cell_4_4 3) (= cell_4_4 4) (= cell_4_4 5) (= cell_4_4 6) (= cell_4_4 7) (= cell_4_4 8) (= cell_4_4 9))))
(assert
 (let (($x3227 (= cell_5_4 9)))
 (let (($x706 (= cell_5_4 8)))
 (let (($x3766 (= cell_5_4 7)))
 (let (($x1034 (= cell_5_4 6)))
 (let (($x180 (= cell_5_4 5)))
 (let (($x492 (= cell_5_4 4)))
 (let (($x562 (= cell_5_4 3)))
 (let (($x1363 (= cell_5_4 2)))
 (let (($x1837 (= cell_5_4 1)))
 (or $x1837 $x1363 $x562 $x492 $x180 $x1034 $x3766 $x706 $x3227)))))))))))
(assert
 (let (($x439 (= cell_6_4 9)))
 (let (($x3325 (= cell_6_4 8)))
 (let (($x124 (= cell_6_4 7)))
 (let (($x904 (= cell_6_4 6)))
 (let (($x2681 (= cell_6_4 5)))
 (let (($x1802 (= cell_6_4 4)))
 (let (($x1538 (= cell_6_4 3)))
 (let (($x1704 (= cell_6_4 2)))
 (let (($x1497 (= cell_6_4 1)))
 (or $x1497 $x1704 $x1538 $x1802 $x2681 $x904 $x124 $x3325 $x439)))))))))))
(assert
 (let (($x1839 (= cell_7_4 1)))
 (or $x1839 (= cell_7_4 2) (= cell_7_4 3) (= cell_7_4 4) (= cell_7_4 5) (= cell_7_4 6) (= cell_7_4 7) (= cell_7_4 8) (= cell_7_4 9))))
(assert
 (let (($x2381 (= cell_8_4 2)))
 (let (($x494 (= cell_8_4 1)))
 (or $x494 $x2381 (= cell_8_4 3) (= cell_8_4 4) (= cell_8_4 5) (= cell_8_4 6) (= cell_8_4 7) (= cell_8_4 8) (= cell_8_4 9)))))
(assert
 (let (($x456 (= cell_9_4 9)))
 (let (($x956 (= cell_9_4 8)))
 (let (($x3467 (= cell_9_4 7)))
 (let (($x2450 (= cell_9_4 6)))
 (let (($x1533 (= cell_9_4 5)))
 (let (($x2779 (= cell_9_4 4)))
 (let (($x466 (= cell_9_4 3)))
 (let (($x2894 (= cell_9_4 2)))
 (let (($x3411 (= cell_9_4 1)))
 (or $x3411 $x2894 $x466 $x2779 $x1533 $x2450 $x3467 $x956 $x456)))))))))))
(assert
 (let (($x679 (= cell_1_5 9)))
 (let (($x2676 (= cell_1_5 8)))
 (let (($x1291 (= cell_1_5 7)))
 (let (($x3321 (= cell_1_5 6)))
 (let (($x2414 (= cell_1_5 5)))
 (let (($x294 (= cell_1_5 4)))
 (let (($x2835 (= cell_1_5 3)))
 (let (($x1666 (= cell_1_5 2)))
 (let (($x2270 (= cell_1_5 1)))
 (or $x2270 $x1666 $x2835 $x294 $x2414 $x3321 $x1291 $x2676 $x679)))))))))))
(assert
 (let (($x1418 (= cell_2_5 9)))
 (let (($x3814 (= cell_2_5 8)))
 (let (($x1312 (= cell_2_5 7)))
 (let (($x2731 (= cell_2_5 6)))
 (let (($x3643 (= cell_2_5 5)))
 (let (($x1699 (= cell_2_5 4)))
 (let (($x1177 (= cell_2_5 3)))
 (let (($x1035 (= cell_2_5 2)))
 (let (($x1049 (= cell_2_5 1)))
 (or $x1049 $x1035 $x1177 $x1699 $x3643 $x2731 $x1312 $x3814 $x1418)))))))))))
(assert
 (let (($x214 (= cell_3_5 9)))
 (let (($x2502 (= cell_3_5 8)))
 (let (($x2225 (= cell_3_5 7)))
 (let (($x581 (= cell_3_5 6)))
 (let (($x1876 (= cell_3_5 5)))
 (let (($x600 (= cell_3_5 4)))
 (let (($x2848 (= cell_3_5 3)))
 (let (($x3823 (= cell_3_5 2)))
 (let (($x1307 (= cell_3_5 1)))
 (or $x1307 $x3823 $x2848 $x600 $x1876 $x581 $x2225 $x2502 $x214)))))))))))
(assert
 (let (($x2477 (= cell_4_5 1)))
 (or $x2477 (= cell_4_5 2) (= cell_4_5 3) (= cell_4_5 4) (= cell_4_5 5) (= cell_4_5 6) (= cell_4_5 7) (= cell_4_5 8) (= cell_4_5 9))))
(assert
 (let (($x1468 (= cell_5_5 9)))
 (let (($x395 (= cell_5_5 8)))
 (let (($x2726 (= cell_5_5 7)))
 (let (($x1332 (= cell_5_5 6)))
 (let (($x1329 (= cell_5_5 5)))
 (let (($x2272 (= cell_5_5 4)))
 (let (($x575 (= cell_5_5 3)))
 (let (($x1238 (= cell_5_5 2)))
 (let (($x2047 (= cell_5_5 1)))
 (or $x2047 $x1238 $x575 $x2272 $x1329 $x1332 $x2726 $x395 $x1468)))))))))))
(assert
 (let (($x1400 (= cell_6_5 9)))
 (let (($x1946 (= cell_6_5 8)))
 (let (($x1586 (= cell_6_5 7)))
 (let (($x2539 (= cell_6_5 6)))
 (let (($x605 (= cell_6_5 5)))
 (let (($x1015 (= cell_6_5 4)))
 (let (($x2059 (= cell_6_5 3)))
 (let (($x1993 (= cell_6_5 2)))
 (let (($x784 (= cell_6_5 1)))
 (or $x784 $x1993 $x2059 $x1015 $x605 $x2539 $x1586 $x1946 $x1400)))))))))))
(assert
 (let (($x3894 (= cell_7_5 2)))
 (let (($x1524 (= cell_7_5 1)))
 (or $x1524 $x3894 (= cell_7_5 3) (= cell_7_5 4) (= cell_7_5 5) (= cell_7_5 6) (= cell_7_5 7) (= cell_7_5 8) (= cell_7_5 9)))))
(assert
 (let (($x741 (= cell_8_5 1)))
 (or $x741 (= cell_8_5 2) (= cell_8_5 3) (= cell_8_5 4) (= cell_8_5 5) (= cell_8_5 6) (= cell_8_5 7) (= cell_8_5 8) (= cell_8_5 9))))
(assert
 (let (($x895 (= cell_9_5 9)))
 (let (($x340 (= cell_9_5 8)))
 (let (($x3184 (= cell_9_5 7)))
 (let (($x2697 (= cell_9_5 6)))
 (let (($x1505 (= cell_9_5 5)))
 (let (($x1913 (= cell_9_5 4)))
 (let (($x2169 (= cell_9_5 3)))
 (let (($x2165 (= cell_9_5 2)))
 (let (($x3134 (= cell_9_5 1)))
 (or $x3134 $x2165 $x2169 $x1913 $x1505 $x2697 $x3184 $x340 $x895)))))))))))
(assert
 (let (($x1753 (= cell_1_6 2)))
 (or (= cell_1_6 1) $x1753 (= cell_1_6 3) (= cell_1_6 4) (= cell_1_6 5) (= cell_1_6 6) (= cell_1_6 7) (= cell_1_6 8) (= cell_1_6 9))))
(assert
 (let (($x2253 (= cell_2_6 1)))
 (or $x2253 (= cell_2_6 2) (= cell_2_6 3) (= cell_2_6 4) (= cell_2_6 5) (= cell_2_6 6) (= cell_2_6 7) (= cell_2_6 8) (= cell_2_6 9))))
(assert
 (let (($x3855 (= cell_3_6 9)))
 (let (($x1629 (= cell_3_6 8)))
 (let (($x1712 (= cell_3_6 7)))
 (let (($x121 (= cell_3_6 6)))
 (let (($x3521 (= cell_3_6 5)))
 (let (($x1246 (= cell_3_6 4)))
 (let (($x2184 (= cell_3_6 3)))
 (let (($x2710 (= cell_3_6 2)))
 (let (($x1624 (= cell_3_6 1)))
 (or $x1624 $x2710 $x2184 $x1246 $x3521 $x121 $x1712 $x1629 $x3855)))))))))))
(assert
 (let (($x2449 (= cell_4_6 2)))
 (let (($x33 (= cell_4_6 1)))
 (or $x33 $x2449 (= cell_4_6 3) (= cell_4_6 4) (= cell_4_6 5) (= cell_4_6 6) (= cell_4_6 7) (= cell_4_6 8) (= cell_4_6 9)))))
(assert
 (let (($x3010 (= cell_5_6 9)))
 (let (($x79 (= cell_5_6 8)))
 (let (($x739 (= cell_5_6 7)))
 (let (($x72 (= cell_5_6 6)))
 (let (($x2985 (= cell_5_6 5)))
 (let (($x1347 (= cell_5_6 4)))
 (let (($x2070 (= cell_5_6 3)))
 (let (($x3035 (= cell_5_6 2)))
 (let (($x523 (= cell_5_6 1)))
 (or $x523 $x3035 $x2070 $x1347 $x2985 $x72 $x739 $x79 $x3010)))))))))))
(assert
 (let (($x1958 (= cell_6_6 9)))
 (let (($x3200 (= cell_6_6 8)))
 (let (($x206 (= cell_6_6 7)))
 (let (($x2306 (= cell_6_6 6)))
 (let (($x2886 (= cell_6_6 5)))
 (let (($x993 (= cell_6_6 4)))
 (let (($x808 (= cell_6_6 3)))
 (let (($x782 (= cell_6_6 2)))
 (let (($x2436 (= cell_6_6 1)))
 (or $x2436 $x782 $x808 $x993 $x2886 $x2306 $x206 $x3200 $x1958)))))))))))
(assert
 (let (($x1296 (= cell_7_6 2)))
 (let (($x1692 (= cell_7_6 1)))
 (or $x1692 $x1296 (= cell_7_6 3) (= cell_7_6 4) (= cell_7_6 5) (= cell_7_6 6) (= cell_7_6 7) (= cell_7_6 8) (= cell_7_6 9)))))
(assert
 (let (($x3575 (= cell_8_6 2)))
 (let (($x724 (= cell_8_6 1)))
 (or $x724 $x3575 (= cell_8_6 3) (= cell_8_6 4) (= cell_8_6 5) (= cell_8_6 6) (= cell_8_6 7) (= cell_8_6 8) (= cell_8_6 9)))))
(assert
 (let (($x2506 (= cell_9_6 9)))
 (let (($x2331 (= cell_9_6 8)))
 (let (($x2129 (= cell_9_6 7)))
 (let (($x1985 (= cell_9_6 6)))
 (let (($x1507 (= cell_9_6 5)))
 (let (($x693 (= cell_9_6 4)))
 (let (($x2668 (= cell_9_6 3)))
 (let (($x752 (= cell_9_6 2)))
 (let (($x2110 (= cell_9_6 1)))
 (or $x2110 $x752 $x2668 $x693 $x1507 $x1985 $x2129 $x2331 $x2506)))))))))))
(assert
 (let (($x2561 (= cell_1_7 9)))
 (let (($x584 (= cell_1_7 8)))
 (let (($x742 (= cell_1_7 7)))
 (let (($x2617 (= cell_1_7 6)))
 (let (($x3397 (= cell_1_7 5)))
 (let (($x423 (= cell_1_7 4)))
 (let (($x1854 (= cell_1_7 3)))
 (let (($x111 (= cell_1_7 2)))
 (let (($x2911 (= cell_1_7 1)))
 (or $x2911 $x111 $x1854 $x423 $x3397 $x2617 $x742 $x584 $x2561)))))))))))
(assert
 (let (($x2524 (= cell_2_7 9)))
 (let (($x1528 (= cell_2_7 8)))
 (let (($x898 (= cell_2_7 7)))
 (let (($x3242 (= cell_2_7 6)))
 (let (($x2145 (= cell_2_7 5)))
 (let (($x2849 (= cell_2_7 4)))
 (let (($x52 (= cell_2_7 3)))
 (let (($x1383 (= cell_2_7 2)))
 (let (($x2658 (= cell_2_7 1)))
 (or $x2658 $x1383 $x52 $x2849 $x2145 $x3242 $x898 $x1528 $x2524)))))))))))
(assert
 (let (($x3257 (= cell_3_7 9)))
 (let (($x913 (= cell_3_7 8)))
 (let (($x1462 (= cell_3_7 7)))
 (let (($x2536 (= cell_3_7 6)))
 (let (($x1877 (= cell_3_7 5)))
 (let (($x2704 (= cell_3_7 4)))
 (let (($x210 (= cell_3_7 3)))
 (let (($x2864 (= cell_3_7 2)))
 (let (($x1938 (= cell_3_7 1)))
 (or $x1938 $x2864 $x210 $x2704 $x1877 $x2536 $x1462 $x913 $x3257)))))))))))
(assert
 (let (($x4067 (= cell_4_7 9)))
 (let (($x3606 (= cell_4_7 8)))
 (let (($x538 (= cell_4_7 7)))
 (let (($x1853 (= cell_4_7 6)))
 (let (($x1529 (= cell_4_7 5)))
 (let (($x1570 (= cell_4_7 4)))
 (let (($x1072 (= cell_4_7 3)))
 (let (($x2135 (= cell_4_7 2)))
 (let (($x3484 (= cell_4_7 1)))
 (or $x3484 $x2135 $x1072 $x1570 $x1529 $x1853 $x538 $x3606 $x4067)))))))))))
(assert
 (let (($x3646 (= cell_5_7 9)))
 (let (($x3079 (= cell_5_7 8)))
 (let (($x1121 (= cell_5_7 7)))
 (let (($x1268 (= cell_5_7 6)))
 (let (($x1795 (= cell_5_7 5)))
 (let (($x1771 (= cell_5_7 4)))
 (let (($x3730 (= cell_5_7 3)))
 (let (($x1328 (= cell_5_7 2)))
 (let (($x1669 (= cell_5_7 1)))
 (or $x1669 $x1328 $x3730 $x1771 $x1795 $x1268 $x1121 $x3079 $x3646)))))))))))
(assert
 (let (($x280 (= cell_6_7 9)))
 (let (($x1737 (= cell_6_7 8)))
 (let (($x2019 (= cell_6_7 7)))
 (let (($x323 (= cell_6_7 6)))
 (let (($x711 (= cell_6_7 5)))
 (let (($x2151 (= cell_6_7 4)))
 (let (($x1435 (= cell_6_7 3)))
 (let (($x1951 (= cell_6_7 2)))
 (let (($x594 (= cell_6_7 1)))
 (or $x594 $x1951 $x1435 $x2151 $x711 $x323 $x2019 $x1737 $x280)))))))))))
(assert
 (let (($x1798 (= cell_7_7 9)))
 (let (($x360 (= cell_7_7 8)))
 (let (($x713 (= cell_7_7 7)))
 (let (($x1218 (= cell_7_7 6)))
 (let (($x2206 (= cell_7_7 5)))
 (let (($x3568 (= cell_7_7 4)))
 (let (($x1199 (= cell_7_7 3)))
 (let (($x2035 (= cell_7_7 2)))
 (let (($x1129 (= cell_7_7 1)))
 (or $x1129 $x2035 $x1199 $x3568 $x2206 $x1218 $x713 $x360 $x1798)))))))))))
(assert
 (let (($x2910 (= cell_8_7 9)))
 (let (($x1399 (= cell_8_7 8)))
 (let (($x2807 (= cell_8_7 7)))
 (let (($x1331 (= cell_8_7 6)))
 (let (($x1790 (= cell_8_7 5)))
 (let (($x967 (= cell_8_7 4)))
 (let (($x2024 (= cell_8_7 3)))
 (let (($x1799 (= cell_8_7 2)))
 (let (($x2707 (= cell_8_7 1)))
 (or $x2707 $x1799 $x2024 $x967 $x1790 $x1331 $x2807 $x1399 $x2910)))))))))))
(assert
 (let (($x601 (= cell_9_7 1)))
 (or $x601 (= cell_9_7 2) (= cell_9_7 3) (= cell_9_7 4) (= cell_9_7 5) (= cell_9_7 6) (= cell_9_7 7) (= cell_9_7 8) (= cell_9_7 9))))
(assert
 (let (($x894 (= cell_1_8 9)))
 (let (($x1783 (= cell_1_8 8)))
 (let (($x2114 (= cell_1_8 7)))
 (let (($x2649 (= cell_1_8 6)))
 (let (($x2261 (= cell_1_8 5)))
 (let (($x450 (= cell_1_8 4)))
 (let (($x332 (= cell_1_8 3)))
 (let (($x170 (= cell_1_8 2)))
 (let (($x2101 (= cell_1_8 1)))
 (or $x2101 $x170 $x332 $x450 $x2261 $x2649 $x2114 $x1783 $x894)))))))))))
(assert
 (let (($x1734 (= cell_2_8 2)))
 (or (= cell_2_8 1) $x1734 (= cell_2_8 3) (= cell_2_8 4) (= cell_2_8 5) (= cell_2_8 6) (= cell_2_8 7) (= cell_2_8 8) (= cell_2_8 9))))
(assert
 (let (($x2639 (= cell_3_8 9)))
 (let (($x664 (= cell_3_8 8)))
 (let (($x715 (= cell_3_8 7)))
 (let (($x2219 (= cell_3_8 6)))
 (let (($x645 (= cell_3_8 5)))
 (let (($x259 (= cell_3_8 4)))
 (let (($x1461 (= cell_3_8 3)))
 (let (($x119 (= cell_3_8 2)))
 (let (($x2380 (= cell_3_8 1)))
 (or $x2380 $x119 $x1461 $x259 $x645 $x2219 $x715 $x664 $x2639)))))))))))
(assert
 (let (($x860 (= cell_4_8 9)))
 (let (($x237 (= cell_4_8 8)))
 (let (($x1984 (= cell_4_8 7)))
 (let (($x1186 (= cell_4_8 6)))
 (let (($x1023 (= cell_4_8 5)))
 (let (($x59 (= cell_4_8 4)))
 (let (($x458 (= cell_4_8 3)))
 (let (($x3445 (= cell_4_8 2)))
 (let (($x1550 (= cell_4_8 1)))
 (or $x1550 $x3445 $x458 $x59 $x1023 $x1186 $x1984 $x237 $x860)))))))))))
(assert
 (let (($x1020 (= cell_5_8 1)))
 (or $x1020 (= cell_5_8 2) (= cell_5_8 3) (= cell_5_8 4) (= cell_5_8 5) (= cell_5_8 6) (= cell_5_8 7) (= cell_5_8 8) (= cell_5_8 9))))
(assert
 (let (($x448 (= cell_6_8 9)))
 (let (($x3140 (= cell_6_8 8)))
 (let (($x3348 (= cell_6_8 7)))
 (let (($x151 (= cell_6_8 6)))
 (let (($x296 (= cell_6_8 5)))
 (let (($x3205 (= cell_6_8 4)))
 (let (($x2296 (= cell_6_8 3)))
 (let (($x2245 (= cell_6_8 2)))
 (let (($x2810 (= cell_6_8 1)))
 (or $x2810 $x2245 $x2296 $x3205 $x296 $x151 $x3348 $x3140 $x448)))))))))))
(assert
 (let (($x2372 (= cell_7_8 9)))
 (let (($x1077 (= cell_7_8 8)))
 (let (($x1428 (= cell_7_8 7)))
 (let (($x781 (= cell_7_8 6)))
 (let (($x2680 (= cell_7_8 5)))
 (let (($x2455 (= cell_7_8 4)))
 (let (($x1947 (= cell_7_8 3)))
 (let (($x1803 (= cell_7_8 2)))
 (let (($x12 (= cell_7_8 1)))
 (or $x12 $x1803 $x1947 $x2455 $x2680 $x781 $x1428 $x1077 $x2372)))))))))))
(assert
 (let (($x2903 (= cell_8_8 9)))
 (let (($x1851 (= cell_8_8 8)))
 (let (($x22 (= cell_8_8 7)))
 (let (($x204 (= cell_8_8 6)))
 (let (($x288 (= cell_8_8 5)))
 (let (($x755 (= cell_8_8 4)))
 (let (($x3835 (= cell_8_8 3)))
 (let (($x1488 (= cell_8_8 2)))
 (let (($x2007 (= cell_8_8 1)))
 (or $x2007 $x1488 $x3835 $x755 $x288 $x204 $x22 $x1851 $x2903)))))))))))
(assert
 (let (($x240 (= cell_9_8 2)))
 (let (($x2569 (= cell_9_8 1)))
 (or $x2569 $x240 (= cell_9_8 3) (= cell_9_8 4) (= cell_9_8 5) (= cell_9_8 6) (= cell_9_8 7) (= cell_9_8 8) (= cell_9_8 9)))))
(assert
 (let (($x2537 (= cell_1_9 9)))
 (let (($x923 (= cell_1_9 8)))
 (let (($x397 (= cell_1_9 7)))
 (let (($x2645 (= cell_1_9 6)))
 (let (($x2690 (= cell_1_9 5)))
 (let (($x131 (= cell_1_9 4)))
 (let (($x2099 (= cell_1_9 3)))
 (let (($x1846 (= cell_1_9 2)))
 (let (($x2795 (= cell_1_9 1)))
 (or $x2795 $x1846 $x2099 $x131 $x2690 $x2645 $x397 $x923 $x2537)))))))))))
(assert
 (let (($x196 (= cell_2_9 9)))
 (let (($x1710 (= cell_2_9 8)))
 (let (($x1374 (= cell_2_9 7)))
 (let (($x1648 (= cell_2_9 6)))
 (let (($x1583 (= cell_2_9 5)))
 (let (($x2325 (= cell_2_9 4)))
 (let (($x446 (= cell_2_9 3)))
 (let (($x491 (= cell_2_9 2)))
 (let (($x2149 (= cell_2_9 1)))
 (or $x2149 $x491 $x446 $x2325 $x1583 $x1648 $x1374 $x1710 $x196)))))))))))
(assert
 (let (($x2364 (= cell_3_9 1)))
 (or $x2364 (= cell_3_9 2) (= cell_3_9 3) (= cell_3_9 4) (= cell_3_9 5) (= cell_3_9 6) (= cell_3_9 7) (= cell_3_9 8) (= cell_3_9 9))))
(assert
 (let (($x551 (= cell_4_9 9)))
 (let (($x123 (= cell_4_9 8)))
 (let (($x2689 (= cell_4_9 7)))
 (let (($x3424 (= cell_4_9 6)))
 (let (($x1573 (= cell_4_9 5)))
 (let (($x157 (= cell_4_9 4)))
 (let (($x1969 (= cell_4_9 3)))
 (let (($x2320 (= cell_4_9 2)))
 (let (($x108 (= cell_4_9 1)))
 (or $x108 $x2320 $x1969 $x157 $x1573 $x3424 $x2689 $x123 $x551)))))))))))
(assert
 (let (($x1133 (= cell_5_9 9)))
 (let (($x788 (= cell_5_9 8)))
 (let (($x1131 (= cell_5_9 7)))
 (let (($x1107 (= cell_5_9 6)))
 (let (($x934 (= cell_5_9 5)))
 (let (($x2484 (= cell_5_9 4)))
 (let (($x2077 (= cell_5_9 3)))
 (let (($x2895 (= cell_5_9 2)))
 (let (($x2268 (= cell_5_9 1)))
 (or $x2268 $x2895 $x2077 $x2484 $x934 $x1107 $x1131 $x788 $x1133)))))))))))
(assert
 (let (($x2410 (= cell_6_9 2)))
 (or (= cell_6_9 1) $x2410 (= cell_6_9 3) (= cell_6_9 4) (= cell_6_9 5) (= cell_6_9 6) (= cell_6_9 7) (= cell_6_9 8) (= cell_6_9 9))))
(assert
 (let (($x1327 (= cell_7_9 9)))
 (let (($x2666 (= cell_7_9 8)))
 (let (($x2541 (= cell_7_9 7)))
 (let (($x3055 (= cell_7_9 6)))
 (let (($x929 (= cell_7_9 5)))
 (let (($x1531 (= cell_7_9 4)))
 (let (($x1453 (= cell_7_9 3)))
 (let (($x2136 (= cell_7_9 2)))
 (let (($x3168 (= cell_7_9 1)))
 (or $x3168 $x2136 $x1453 $x1531 $x929 $x3055 $x2541 $x2666 $x1327)))))))))))
(assert
 (let (($x1929 (= cell_8_9 9)))
 (let (($x297 (= cell_8_9 8)))
 (let (($x2467 (= cell_8_9 7)))
 (let (($x3847 (= cell_8_9 6)))
 (let (($x3214 (= cell_8_9 5)))
 (let (($x1292 (= cell_8_9 4)))
 (let (($x47 (= cell_8_9 3)))
 (let (($x1414 (= cell_8_9 2)))
 (let (($x2746 (= cell_8_9 1)))
 (or $x2746 $x1414 $x47 $x1292 $x3214 $x3847 $x2467 $x297 $x1929)))))))))))
(assert
 (let (($x1011 (= cell_9_9 2)))
 (let (($x2994 (= cell_9_9 1)))
 (or $x2994 $x1011 (= cell_9_9 3) (= cell_9_9 4) (= cell_9_9 5) (= cell_9_9 6) (= cell_9_9 7) (= cell_9_9 8) (= cell_9_9 9)))))
(assert
 (and (distinct cell_1_1 cell_1_2 cell_1_3 cell_1_4 cell_1_5 cell_1_6 cell_1_7 cell_1_8 cell_1_9) true))
(assert
 (and (distinct cell_2_1 cell_2_2 cell_2_3 cell_2_4 cell_2_5 cell_2_6 cell_2_7 cell_2_8 cell_2_9) true))
(assert
 (and (distinct cell_3_1 cell_3_2 cell_3_3 cell_3_4 cell_3_5 cell_3_6 cell_3_7 cell_3_8 cell_3_9) true))
(assert
 (and (distinct cell_4_1 cell_4_2 cell_4_3 cell_4_4 cell_4_5 cell_4_6 cell_4_7 cell_4_8 cell_4_9) true))
(assert
 (and (distinct cell_5_1 cell_5_2 cell_5_3 cell_5_4 cell_5_5 cell_5_6 cell_5_7 cell_5_8 cell_5_9) true))
(assert
 (and (distinct cell_6_1 cell_6_2 cell_6_3 cell_6_4 cell_6_5 cell_6_6 cell_6_7 cell_6_8 cell_6_9) true))
(assert
 (and (distinct cell_7_1 cell_7_2 cell_7_3 cell_7_4 cell_7_5 cell_7_6 cell_7_7 cell_7_8 cell_7_9) true))
(assert
 (and (distinct cell_8_1 cell_8_2 cell_8_3 cell_8_4 cell_8_5 cell_8_6 cell_8_7 cell_8_8 cell_8_9) true))
(assert
 (and (distinct cell_9_1 cell_9_2 cell_9_3 cell_9_4 cell_9_5 cell_9_6 cell_9_7 cell_9_8 cell_9_9) true))
(assert
 (and (distinct cell_1_1 cell_2_1 cell_3_1 cell_4_1 cell_5_1 cell_6_1 cell_7_1 cell_8_1 cell_9_1) true))
(assert
 (and (distinct cell_1_2 cell_2_2 cell_3_2 cell_4_2 cell_5_2 cell_6_2 cell_7_2 cell_8_2 cell_9_2) true))
(assert
 (and (distinct cell_1_3 cell_2_3 cell_3_3 cell_4_3 cell_5_3 cell_6_3 cell_7_3 cell_8_3 cell_9_3) true))
(assert
 (and (distinct cell_1_4 cell_2_4 cell_3_4 cell_4_4 cell_5_4 cell_6_4 cell_7_4 cell_8_4 cell_9_4) true))
(assert
 (and (distinct cell_1_5 cell_2_5 cell_3_5 cell_4_5 cell_5_5 cell_6_5 cell_7_5 cell_8_5 cell_9_5) true))
(assert
 (and (distinct cell_1_6 cell_2_6 cell_3_6 cell_4_6 cell_5_6 cell_6_6 cell_7_6 cell_8_6 cell_9_6) true))
(assert
 (and (distinct cell_1_7 cell_2_7 cell_3_7 cell_4_7 cell_5_7 cell_6_7 cell_7_7 cell_8_7 cell_9_7) true))
(assert
 (and (distinct cell_1_8 cell_2_8 cell_3_8 cell_4_8 cell_5_8 cell_6_8 cell_7_8 cell_8_8 cell_9_8) true))
(assert
 (and (distinct cell_1_9 cell_2_9 cell_3_9 cell_4_9 cell_5_9 cell_6_9 cell_7_9 cell_8_9 cell_9_9) true))
(assert
 (and (distinct cell_1_1 cell_1_2 cell_1_3 cell_2_1 cell_2_2 cell_2_3 cell_3_1 cell_3_2 cell_3_3) true))
(assert
 (and (distinct cell_1_4 cell_1_5 cell_1_6 cell_2_4 cell_2_5 cell_2_6 cell_3_4 cell_3_5 cell_3_6) true))
(assert
 (and (distinct cell_1_7 cell_1_8 cell_1_9 cell_2_7 cell_2_8 cell_2_9 cell_3_7 cell_3_8 cell_3_9) true))
(assert
 (and (distinct cell_4_1 cell_4_2 cell_4_3 cell_5_1 cell_5_2 cell_5_3 cell_6_1 cell_6_2 cell_6_3) true))
(assert
 (and (distinct cell_4_4 cell_4_5 cell_4_6 cell_5_4 cell_5_5 cell_5_6 cell_6_4 cell_6_5 cell_6_6) true))
(assert
 (and (distinct cell_4_7 cell_4_8 cell_4_9 cell_5_7 cell_5_8 cell_5_9 cell_6_7 cell_6_8 cell_6_9) true))
(assert
 (and (distinct cell_7_1 cell_7_2 cell_7_3 cell_8_1 cell_8_2 cell_8_3 cell_9_1 cell_9_2 cell_9_3) true))
(assert
 (and (distinct cell_7_4 cell_7_5 cell_7_6 cell_8_4 cell_8_5 cell_8_6 cell_9_4 cell_9_5 cell_9_6) true))
(assert
 (and (distinct cell_7_7 cell_7_8 cell_7_9 cell_8_7 cell_8_8 cell_8_9 cell_9_7 cell_9_8 cell_9_9) true))
(assert
 (let (($x514 (and (distinct cell_5_9 cell_6_8 cell_7_7 cell_8_6) true)))
 (let (($x1183 (and (distinct cell_2_9 cell_3_8 cell_4_7 cell_5_6 cell_6_5 cell_7_4 cell_8_3 cell_9_2) true)))
 (let (($x1981 (and (distinct cell_1_8 cell_2_7 cell_3_6 cell_4_5 cell_5_4 cell_6_3 cell_7_2 cell_8_1) true)))
 (let (($x981 (and (distinct cell_1_5 cell_2_4 cell_3_3 cell_4_2) true)))
 (let (($x1147 (and (distinct cell_5_1 cell_6_2 cell_7_3 cell_8_4) true)))
 (let (($x2829 (and (distinct cell_2_1 cell_3_2 cell_4_3 cell_5_4 cell_6_5 cell_7_6 cell_8_7 cell_9_8) true)))
 (let (($x537 (and (distinct cell_1_2 cell_2_3 cell_3_4 cell_4_5 cell_5_6 cell_6_7 cell_7_8 cell_8_9) true)))
 (let (($x392 (and (distinct cell_1_5 cell_2_6 cell_3_7 cell_4_8) true)))
 (and $x392 $x537 $x2829 $x1147 $x981 $x1981 $x1183 $x514))))))))))
(assert
 (= cell_8_7 2))
(check-sat)
